35 -60 -77 87 -70 -5 0
-32 64 -29 -23 -80 20 -75 87 -5 0
64 -56 -86 -85 -51 -83 -45 -44 -70 -5 0
64 35 5 -56 -86 -85 -83 -45 -44 -70 0
64 5 40 -56 -86 -83 -45 -44 -70 -35 0
-31 -63 -86 24 -70 0
64 -63 -85 -45 -44 -70 0
64 35 -85 44 78 -45 -70 -5 0
-61 100 -85 44 78 -45 -5 -35 31 0
100 44 -99 78 -14 -45 -35 0
64 100 40 -85 44 78 -45 -70 -5 -35 0
64 -85 44 78 -45 -70 -5 0
5 44 78 -14 -45 93 -35 -97 0
5 -86 10 44 78 -14 -45 -35 -65 0
64 -63 5 40 44 78 -45 -35 0
64 -63 5 -85 44 78 -45 -35 0
0
